5 5
0 41 1 39 3 26 2 2 4 23
4 23 1 85 2 16 0 9 3 13
2 28 4 27 3 51 1 64 0 52
0 81 1 38 2 65 3 18 4 63
3 51 2 9 0 13 4 40 1 55
-1
0 3 5
0 3 4 5
0 1 3 5
0 1 2 4 5
0 1 3 4 5
-2
131 181
129 187 214
42 139 345
103 158 250 338
74 78 153 171

304 4
15 22 0 8 14
6 16 1 13 24
10 21 7 17 3
20 12 9 2 18
5 11 23 4 19
